c This is UnifRandomKSATGenerator
c uniform random 3-SAT generated instance with: 
c clause length: 3 
c number variables: 20 
c number clauses: 85 
c clause to variable ratio: 4.27 
c random number generator name: SHA1PRNG 
c random number generator provider: SUN 
c random number generator seed: 3318317741091997985 
p cnf 20 85
-3 14 -16 0
-9 -11 5 0
-2 1 12 0
-1 -2 -16 0
-2 -20 6 0
-2 -10 -20 0
16 18 -3 0
-17 -4 15 0
8 1 10 0
-12 4 -13 0
9 -12 -13 0
-10 -6 14 0
-11 14 -8 0
-19 -14 -15 0
-18 -3 -5 0
1 4 -7 0
17 -4 15 0
14 7 -8 0
-1 -8 7 0
9 -3 13 0
-13 -14 5 0
9 -19 -15 0
17 4 15 0
9 -11 -13 0
8 18 15 0
10 -11 12 0
-10 12 14 0
9 2 -15 0
17 10 -11 0
16 17 -4 0
-5 13 6 0
-9 -2 14 0
-9 -2 15 0
-17 8 7 0
-9 11 7 0
-3 -14 7 0
-17 -9 5 0
1 10 -12 0
-5 4 -7 0
17 -3 -14 0
-11 18 -5 0
-10 -3 20 0
-9 20 -13 0
16 19 -13 0
9 -10 6 0
-18 -2 10 0
2 -8 7 0
17 4 -15 0
8 -10 -2 0
-4 5 -7 0
10 -4 20 0
18 4 -7 0
-17 18 -16 0
-1 -18 3 0
-9 -14 -6 0
-19 -11 2 0
-11 -19 3 0
-2 -5 -8 0
8 -5 -16 0
-12 11 20 0
17 18 3 0
19 5 13 0
-1 17 -6 0
11 -20 4 0
-20 4 12 0
-12 4 7 0
-9 2 5 0
-9 2 7 0
-9 2 10 0
8 -6 14 0
17 -11 6 0
-18 2 -19 0
-20 -12 13 0
-1 16 10 0
8 11 6 0
-2 -11 19 0
1 6 15 0
8 17 2 0
-10 -11 14 0
-9 -2 -15 0
-1 -15 6 0
-11 -12 -7 0
-17 -19 -5 0
11 -12 5 0
-17 3 20 0
